Total weight: 1390.462097111124
Route 1: 0 42 92 5 83 52 2 95 59 99 48 88 76 12 21 73 54 40 26 53 6 94 96 97 43 13 58 37 100 91 93 18 70 1 77 80 0 
Route 2: 0 72 39 29 33 30 62 82 45 61 98 85 86 17 7 10 90 32 79 3 68 24 67 55 25 4 56 74 0 
Route 3: 0 27 69 31 63 11 47 16 44 14 38 15 22 75 23 41 57 87 50 51 9 81 78 34 35 66 20 0 
Route 4: 0 28 65 71 64 36 49 19 46 8 84 60 89 0 
